4009
3905
3982
3984
4009
3939
4083
3920
4017
3955
7995
8001
7997
8015
7935
7855
7995
8058
7921
7871
9836
10002
9922
9857
9943
18091
18073
18077
18084
18072
44921
44869
44906
44893
44883
32041
31954
31969
31971
31955
13230
41910
126225
365365
960
2688
7168
18432
46080
112640
80143
80105
80163
80034
80072
4914
5013
5040
4952
5017
249448
249367
249371
249341
249393
499314
499275
499250
499302
499336
199471
199451
199498
199456
199450
499163
499167
499126
499149
499179
